n = 21;
k = 2;
roles = [
{g, f},
{d, f},
{g, d},
{f, g},
{g, d},
{m, g},
{g, m},
{d, g},
{d, g},
{g, d},
{m, d},
{m, d},
{g, f},
{f, g},
{m, f},
{f, g},
{f, m},
{m, f},
{g, f},
{g, f},
{d, g}
];
num_pairs = 2;
player1 = [12, 20];
player2 = [8, 9];
